5
976 946 898  499
466 490 834  107
442 879 752  939
580 992 733  649
772 855 845  286
15
746 143 607  42 41
328 556 390  59 139
214 613 286  91 177
534 337 411  217 225
734 106 585  197 286
142 202 665  118 49
288 296 508  228 269
351 420 478  74 112
722 245 513  216 208
194 569 321  31 8
324 222 775  53 71
75 53 152  224 150
373 486 130  42 191
758 646 454  292 118
756 221 596  201 151
